cost: 741.68
Route 1:           0   12    5   49   10   39   33   45   15   44   37   17    0
Route 2:           0   27   48   23    7   43   24   25   14    6    0
Route 3:           0   32    2   20   35   36    3   28   31   26    8   22    1    0
Route 4:           0   46   11   16   29   21   50   34   30    9   38    0
Route 5:           0   47    4   42   19   40   41   13   18    0
